data/CVRPLIB/Vrp-Set-XML100/instances/XML100_3311_16.vrp
NAME : XML100_3311_16
COMMENT : Generated by Queiroga, Sadykov, Uchoa, and Vidal (2021)
TYPE : CVRP
DIMENSION : 101
EDGE_WEIGHT_TYPE : EUC_2D
CAPACITY : 4
NODE_COORD_SECTION
1    0    0   
2    417  411 
3    129  68  
4    165  782 
5    988  943 
6    755  771 
7    96   797 
8    86   256 
9    571  193 
10   753  806 
11   169  67  
12   114  518 
13   909  746 
14   919  551 
15   790  948 
16   992  853 
17   925  670 
18   661  545 
19   980  453 
20   354  561 
21   786  793 
22   550  170 
23   367  363 
24   840  783 
25   736  449 
26   174  735 
27   639  718 
28   428  70  
29   446  374 
30   491  632 
31   90   530 
32   250  154 
33   439  150 
34   123  963 
35   771  712 
36   102  721 
37   934  816 
38   258  423 
39   377  299 
40   710  646 
41   773  152 
42   430  398 
43   385  949 
44   521  192 
45   53   512 
46   214  204 
47   95   568 
48   117  504 
49   669  195 
50   433  207 
51   929  638 
52   772  542 
53   326  40  
54   243  678 
55   918  822 
56   879  820 
57   64   517 
58   97   156 
59   401  272 
60   502  138 
61   846  808 
62   136  866 
63   304  703 
64   803  461 
65   430  388 
66   210  69  
67   144  124 
68   323  914 
69   895  920 
70   573  368 
71   927  488 
72   647  420 
73   646  593 
74   212  928 
75   400  268 
76   285  881 
77   155  923 
78   771  592 
79   939  731 
80   162  806 
81   568  100 
82   53   996 
83   359  511 
84   150  215 
85   479  491 
86   142  682 
87   167  780 
88   351  813 
89   99   147 
90   690  74  
91   346  24  
92   838  792 
93   12   285 
94   777  568 
95   143  879 
96   730  281 
97   560  651 
98   347  916 
99   814  743 
100  920  714 
101  871  770 
DEMAND_SECTION
1    0   
2    1   
3    1   
4    1   
5    1   
6    1   
7    1   
8    1   
9    1   
10   1   
11   1   
12   1   
13   1   
14   1   
15   1   
16   1   
17   1   
18   1   
19   1   
20   1   
21   1   
22   1   
23   1   
24   1   
25   1   
26   1   
27   1   
28   1   
29   1   
30   1   
31   1   
32   1   
33   1   
34   1   
35   1   
36   1   
37   1   
38   1   
39   1   
40   1   
41   1   
42   1   
43   1   
44   1   
45   1   
46   1   
47   1   
48   1   
49   1   
50   1   
51   1   
52   1   
53   1   
54   1   
55   1   
56   1   
57   1   
58   1   
59   1   
60   1   
61   1   
62   1   
63   1   
64   1   
65   1   
66   1   
67   1   
68   1   
69   1   
70   1   
71   1   
72   1   
73   1   
74   1   
75   1   
76   1   
77   1   
78   1   
79   1   
80   1   
81   1   
82   1   
83   1   
84   1   
85   1   
86   1   
87   1   
88   1   
89   1   
90   1   
91   1   
92   1   
93   1   
94   1   
95   1   
96   1   
97   1   
98   1   
99   1   
100  1   
101  1   
DEPOT_SECTION
1
-1
EOF
