data/CVRPLIB/Vrp-Set-XML100/solutions/XML100_3311_16.sol
Route #1: 2 66 57 88
Route #2: 10 65 52 90
Route #3: 67 97 42 87
Route #4: 44 56 11 47
Route #5: 69 71 24 95
Route #6: 100 60 91 23
Route #7: 18 70 13 63
Route #8: 5 9 20 98
Route #9: 28 64 41 1
Route #10: 92 7 83 45
Route #11: 80 89 40 48
Route #12: 37 19 62 53
Route #13: 3 79 86 25
Route #14: 55 54 36 12
Route #15: 14 68 4 15
Route #16: 99 78 16 50
Route #17: 59 21 8 43
Route #18: 51 93 77 17
Route #19: 82 29 96 84
Route #20: 27 32 49 31
Route #21: 81 33 76 94
Route #22: 6 61 73 75
Route #23: 22 38 58 74
Route #24: 85 35 46 30
Route #25: 26 34 39 72
Cost 42544
